100
128
2
58
3
39
61
53
8
33
60
19
62
46
5
12
30
35
43
42
48
57
19
22
35
47
44
52
19
35
26
31
2
12
45
16
19
64
31
26
14
11
2
47
14
63
13
16
30
1
41
10
46
32
14
27
13
53
34
14
49
36
13
13
16
1
13
51
14
18
21
12
27
25
17
30
28
29
11
18
16
32
16
51
37
16
56
43
15
24
2
53
29
41
45
3
34
16
62
48
18
46